language ESSENCE' 1.0
letting AssignmentMatrix be [[0, 1, 0, 0, 1, 1, 1, 0, 1, 1, 0, 0, 0, 1, 0, 1, 0, 1, 0, 1, 0, 0, 0, 1, 0, 1], 
[1, 0, 0, 1, 0, 0, 1, 0, 0, 0, 1, 1, 1, 0, 1, 0, 1, 0, 1, 0, 0, 1, 0, 0, 1, 0], 
[0, 0, 0, 0, 0, 0, 0, 0, 0, 0, 0, 0, 0, 0, 0, 0, 0, 0, 0, 0, 0, 0, 0, 0, 0, 0], 
[0, 0, 1, 0, 0, 0, 0, 1, 0, 0, 0, 0, 0, 0, 0, 0, 0, 0, 0, 0, 1, 0, 1, 0, 0, 0], 
[0, 0, 0, 0, 0, 0, 0, 0, 0, 0, 0, 0, 0, 0, 0, 1, 0, 1, 0, 0, 0, 0, 0, 0, 0, 0]]
letting CPU be [2, 2, 4, 2, 2, 2, 4, 4, 2, 2, 2, 4, 2, 2, 2, 8, 2, 8, 2, 2, 4, 2, 4, 2, 2, 2]
letting Memory be [3750, 3750, 7500, 3750, 3750, 3750, 15000, 7500, 3750, 3750, 3750, 7500, 3750, 3750, 3750, 15000, 3750, 15000, 3750, 3750, 7500, 3750, 7500, 3750, 3750, 3750]
letting Price be [116, 116, 210, 116, 116, 126, 423, 210, 116, 116, 116, 210, 116, 116, 116, 420, 116, 462, 116, 116, 210, 116, 210, 116, 116, 126]
letting Storage be [2000, 2000, 2000, 2000, 2000, 2000, 4000, 2000, 2000, 2000, 2000, 2000, 2000, 2000, 2000, 2000, 2000, 2000, 2000, 2000, 2000, 2000, 2000, 2000, 2000, 2000]
letting VMType be [433, 433, 341, 433, 433, 477, 339, 341, 433, 433, 433, 341, 433, 433, 433, 278, 433, 240, 433, 433, 341, 433, 341, 433, 433, 464]
